80 80
92 54 1
88 58 1
91 51 1
79 27 1
68 51 1
54 72 1
73 55 1
92 96 1
55 61 1
33 98 1
66 70 1
84 27 1
55 83 1
72 84 1
81 48 1
22 19 1
66 65 1
74 82 1
89 86 1
29 23 1
89 60 1
87 92 1
67 87 1
98 89 1
73 66 1
61 63 1
8 99 1
79 66 1
69 84 1
99 97 1
59 72 1
71 55 1
77 63 1
97 92 1
81 8 1
75 55 1
47 69 1
56 98 1
48 69 1
91 68 1
28 71 1
85 17 1
90 14 1
78 43 1
70 72 1
60 97 1
83 84 1
56 78 1
74 99 1
55 88 1
96 16 1
57 75 1
91 86 1
62 91 1
16 10 1
69 85 1
68 86 1
80 55 1
49 76 1
94 55 1
57 97 1
59 83 1
94 82 1
79 88 1
9 79 1
2 21 1
50 60 1
76 82 1
71 53 1
5 21 1
69 50 1
85 88 1
96 50 1
79 33 1
100 52 1
6 69 1
82 58 1
96 55 1
92 66 1
88 84 1
100 100 
100 100 
100 100 
100 100 
100 100 
100 100 
100 100 
100 100 
100 100 
100 100 
100 100 
100 100 
100 100 
100 100 
100 100 
100 100 
100 100 
100 100 
100 100 
100 100 
100 100 
100 100 
100 100 
100 100 
100 100 
100 100 
100 100 
100 100 
100 100 
100 100 
100 100 
100 100 
100 100 
100 100 
100 100 
100 100 
100 100 
100 100 
100 100 
100 100 
100 100 
100 100 
100 100 
100 100 
100 100 
100 100 
100 100 
100 100 
100 100 
100 100 
100 100 
100 100 
100 100 
100 100 
100 100 
100 100 
100 100 
100 100 
100 100 
100 100 
100 100 
100 100 
100 100 
100 100 
100 100 
100 100 
100 100 
100 100 
100 100 
100 100 
100 100 
100 100 
100 100 
100 100 
100 100 
100 100 
100 100 
100 100 
100 100 
100 100 
